c preprocessed version of 1fs1_graph, 114 vertices, 1351 edges
p td 114 1351
112 113
111 113
111 112
110 113
110 112
110 111
109 113
109 112
109 111
109 110
108 113
108 112
108 111
108 110
108 109
107 112
107 111
107 110
107 109
107 108
106 113
106 111
106 110
106 109
106 108
106 107
105 113
105 112
105 110
105 109
105 108
105 107
105 106
104 111
104 110
104 109
104 108
104 107
104 106
104 105
103 112
103 111
103 110
103 108
103 107
103 106
103 105
103 104
102 111
102 108
102 107
102 104
102 103
101 108
101 103
101 102
100 112
100 111
100 109
100 108
100 107
100 105
100 104
100 103
100 102
100 101
99 112
99 111
99 108
99 107
99 103
99 101
99 100
98 111
98 103
98 102
98 101
98 100
98 99
97 112
97 108
97 101
97 100
97 99
97 98
96 112
96 111
96 108
96 101
96 100
96 99
96 98
96 97
95 112
95 111
95 99
95 98
95 97
95 96
94 101
94 98
94 97
94 96
94 95
93 99
93 96
93 95
93 94
92 98
92 95
92 94
92 93
91 98
91 97
91 95
91 94
91 93
91 92
90 97
90 96
90 94
90 93
90 92
90 91
89 96
89 95
89 93
89 92
89 91
89 90
88 95
88 94
88 93
88 92
88 91
88 90
88 89
87 94
87 92
87 91
87 90
87 89
87 88
86 93
86 92
86 91
86 90
86 89
86 88
86 87
85 90
85 87
85 86
84 93
84 90
84 89
84 88
84 86
84 85
83 90
83 89
83 86
83 85
83 84
82 96
82 93
82 91
82 90
82 89
82 87
82 86
82 85
82 84
82 83
81 96
81 95
81 93
81 92
81 91
81 90
81 89
81 88
81 87
81 86
81 85
81 84
81 83
81 82
80 93
80 89
80 86
80 85
80 84
80 83
80 82
80 81
79 96
79 90
79 84
79 83
79 82
79 81
79 80
78 112
78 100
78 99
78 97
78 96
78 95
78 93
78 90
78 89
78 83
78 82
78 81
78 80
78 79
77 96
77 95
77 93
77 92
77 90
77 89
77 88
77 86
77 84
77 82
77 81
77 80
77 79
77 78
76 96
76 93
76 89
76 84
76 83
76 81
76 80
76 79
76 78
76 77
75 113
75 112
75 111
75 108
75 100
75 99
75 96
75 95
75 93
75 90
75 82
75 79
75 78
75 77
75 76
74 112
74 111
74 100
74 99
74 98
74 97
74 96
74 95
74 94
74 93
74 92
74 89
74 81
74 78
74 77
74 76
74 75
73 96
73 95
73 93
73 89
73 80
73 77
73 76
73 75
73 74
72 113
72 112
72 111
72 96
72 80
72 79
72 77
72 76
72 75
72 74
72 73
71 113
71 112
71 111
71 110
71 108
71 107
71 103
71 100
71 99
71 96
71 95
71 78
71 76
71 75
71 74
71 73
71 72
70 111
70 96
70 95
70 77
70 76
70 75
70 74
70 73
70 72
70 71
69 99
69 96
69 95
69 93
69 92
69 89
69 81
69 77
69 76
69 75
69 74
69 73
69 72
69 71
69 70
68 111
68 99
68 98
68 95
68 77
68 74
68 71
68 70
68 69
67 99
67 98
67 97
67 96
67 95
67 94
67 93
67 92
67 91
67 89
67 88
67 86
67 81
67 80
67 78
67 77
67 74
67 73
67 71
67 69
67 68
66 95
66 93
66 92
66 89
66 88
66 86
66 81
66 80
66 77
66 74
66 73
66 69
66 68
66 67
65 95
65 69
65 68
65 67
65 66
64 99
64 98
64 95
64 94
64 93
64 92
64 74
64 68
64 67
64 66
64 65
63 98
63 96
63 95
63 94
63 93
63 92
63 91
63 90
63 89
63 88
63 86
63 81
63 77
63 74
63 69
63 68
63 67
63 66
63 65
63 64
62 95
62 92
62 89
62 88
62 67
62 66
62 65
62 64
62 63
61 92
61 68
61 66
61 65
61 64
61 63
61 62
60 95
60 94
60 92
60 91
60 89
60 88
60 67
60 66
60 65
60 64
60 63
60 62
60 61
59 92
59 91
59 89
59 88
59 87
59 86
59 66
59 63
59 62
59 60
58 88
58 63
58 62
58 60
58 59
57 88
57 86
57 59
57 58
56 95
56 93
56 92
56 91
56 89
56 88
56 87
56 86
56 84
56 81
56 80
56 77
56 67
56 66
56 63
56 62
56 60
56 59
56 58
56 57
55 92
55 89
55 88
55 86
55 69
55 67
55 66
55 65
55 63
55 62
55 61
55 60
55 59
55 58
55 57
55 56
54 66
54 62
54 58
54 57
54 56
54 55
53 95
53 93
53 92
53 91
53 90
53 89
53 88
53 87
53 86
53 84
53 81
53 80
53 77
53 74
53 73
53 69
53 67
53 66
53 65
53 63
53 62
53 60
53 59
53 56
53 55
53 54
52 89
52 77
52 73
52 69
52 67
52 66
52 65
52 63
52 62
52 56
52 55
52 54
52 53
51 89
51 86
51 84
51 83
51 81
51 80
51 57
51 55
51 54
51 53
51 52
50 93
50 92
50 90
50 89
50 88
50 86
50 85
50 84
50 83
50 82
50 81
50 80
50 79
50 78
50 77
50 76
50 73
50 69
50 67
50 66
50 63
50 56
50 54
50 53
50 52
50 51
49 95
49 93
49 92
49 89
49 86
49 84
49 81
49 80
49 78
49 77
49 76
49 74
49 73
49 72
49 70
49 69
49 68
49 67
49 66
49 65
49 63
49 62
49 56
49 55
49 53
49 52
49 51
49 50
48 77
48 76
48 73
48 69
48 66
48 54
48 52
48 51
48 50
48 49
47 89
47 86
47 84
47 83
47 81
47 80
47 77
47 76
47 54
47 52
47 51
47 50
47 49
47 48
46 93
46 89
46 84
46 83
46 81
46 80
46 79
46 77
46 76
46 75
46 74
46 73
46 72
46 70
46 69
46 67
46 66
46 53
46 51
46 50
46 49
46 48
46 47
45 80
45 77
45 76
45 73
45 72
45 70
45 69
45 52
45 49
45 48
45 47
45 46
44 80
44 76
44 73
44 52
44 51
44 49
44 48
44 47
44 46
44 45
43 83
43 80
43 79
43 77
43 76
43 73
43 72
43 70
43 50
43 49
43 48
43 47
43 46
43 45
43 44
42 93
42 89
42 86
42 85
42 84
42 83
42 81
42 80
42 79
42 77
42 76
42 73
42 53
42 51
42 50
42 49
42 47
42 46
42 44
42 43
41 85
41 84
41 83
41 82
41 80
41 79
41 76
41 50
41 47
41 46
41 43
41 42
40 84
40 83
40 80
40 79
40 43
40 42
40 41
39 89
39 86
39 85
39 84
39 83
39 81
39 80
39 79
39 76
39 51
39 50
39 47
39 46
39 44
39 43
39 42
39 41
39 40
38 84
38 83
38 47
38 42
38 41
38 40
38 39
37 86
37 84
37 83
37 80
37 51
37 50
37 47
37 42
37 41
37 40
37 39
37 38
36 40
36 39
36 38
36 37
35 38
35 37
35 36
34 40
34 39
34 38
34 37
34 36
34 35
33 37
33 36
33 35
33 34
32 40
32 38
32 37
32 34
32 33
31 34
31 33
31 32
30 37
30 33
30 32
30 31
29 86
29 84
29 51
29 50
29 47
29 42
29 39
29 37
29 36
29 35
29 34
29 33
29 32
29 31
29 30
28 85
28 84
28 83
28 80
28 47
28 42
28 41
28 40
28 39
28 38
28 37
28 36
28 35
28 34
28 33
28 32
28 31
28 30
28 29
27 85
27 39
27 37
27 34
27 32
27 31
27 30
27 29
27 28
26 85
26 84
26 37
26 31
26 30
26 29
26 28
26 27
25 89
25 86
25 85
25 84
25 83
25 80
25 51
25 50
25 47
25 42
25 41
25 39
25 38
25 37
25 36
25 35
25 34
25 30
25 29
25 28
25 27
25 26
24 86
24 85
24 84
24 83
24 82
24 80
24 51
24 50
24 47
24 42
24 41
24 40
24 39
24 38
24 37
24 34
24 32
24 31
24 29
24 28
24 27
24 26
24 25
23 87
23 86
23 85
23 84
23 82
23 31
23 30
23 28
23 27
23 26
23 25
23 24
22 93
22 90
22 89
22 88
22 86
22 85
22 84
22 83
22 81
22 80
22 77
22 56
22 53
22 51
22 50
22 47
22 42
22 41
22 39
22 37
22 29
22 28
22 27
22 26
22 25
22 24
22 23
21 93
21 92
21 91
21 90
21 89
21 88
21 87
21 86
21 85
21 84
21 81
21 80
21 77
21 63
21 59
21 58
21 57
21 56
21 54
21 53
21 51
21 50
21 42
21 39
21 26
21 25
21 23
21 22
20 88
20 86
20 59
20 58
20 57
20 56
20 30
20 29
20 26
20 25
20 23
20 22
20 21
19 86
19 84
19 51
19 39
19 37
19 31
19 30
19 29
19 28
19 27
19 26
19 25
19 24
19 23
19 22
19 21
19 20
18 89
18 86
18 84
18 83
18 81
18 80
18 57
18 56
18 54
18 53
18 52
18 51
18 50
18 48
18 47
18 42
18 39
18 37
18 29
18 28
18 26
18 25
18 24
18 22
18 21
18 20
18 19
17 59
17 58
17 57
17 56
17 54
17 51
17 29
17 26
17 25
17 21
17 20
17 19
17 18
16 57
16 51
16 37
16 35
16 30
16 29
16 28
16 26
16 25
16 20
16 19
16 18
16 17
15 58
15 57
15 54
15 51
15 29
15 25
15 21
15 20
15 19
15 18
15 17
15 16
14 89
14 86
14 84
14 80
14 57
14 54
14 52
14 51
14 50
14 48
14 47
14 44
14 42
14 39
14 37
14 29
14 28
14 25
14 24
14 22
14 21
14 19
14 18
14 17
14 16
14 15
13 54
13 51
13 48
13 47
13 36
13 35
13 18
13 16
13 15
13 14
12 86
12 84
12 83
12 80
12 54
12 52
12 51
12 50
12 49
12 48
12 47
12 46
12 45
12 44
12 43
12 42
12 39
12 37
12 36
12 29
12 25
12 24
12 22
12 18
12 15
12 14
12 13
11 51
11 48
11 47
11 44
11 38
11 37
11 36
11 35
11 14
11 13
11 12
10 51
10 48
10 47
10 45
10 44
10 43
10 36
10 14
10 13
10 12
10 11
9 44
9 43
9 40
9 38
9 36
9 11
9 10
8 76
8 48
8 47
8 46
8 45
8 44
8 43
8 42
8 40
8 38
8 12
8 10
8 9
7 84
7 83
7 80
7 79
7 76
7 47
7 46
7 44
7 43
7 42
7 41
7 40
7 39
7 38
7 10
7 9
7 8
6 84
6 83
6 80
6 51
6 50
6 48
6 47
6 46
6 45
6 44
6 43
6 42
6 40
6 39
6 38
6 37
6 36
6 25
6 22
6 18
6 14
6 12
6 11
6 10
6 9
6 8
6 7
5 51
5 47
5 44
5 42
5 40
5 39
5 38
5 37
5 36
5 35
5 34
5 28
5 25
5 14
5 13
5 12
5 11
5 10
5 9
5 8
5 7
5 6
4 89
4 86
4 84
4 83
4 80
4 54
4 51
4 50
4 48
4 47
4 46
4 44
4 43
4 42
4 41
4 40
4 39
4 38
4 37
4 36
4 34
4 29
4 28
4 26
4 25
4 24
4 22
4 21
4 19
4 18
4 16
4 15
4 14
4 13
4 12
4 11
4 10
4 7
4 6
4 5
3 51
3 47
3 44
3 39
3 38
3 37
3 36
3 35
3 29
3 25
3 18
3 16
3 14
3 13
3 12
3 11
3 10
3 9
3 5
3 4
2 84
2 51
2 50
2 47
2 42
2 39
2 37
2 36
2 35
2 34
2 33
2 30
2 29
2 28
2 26
2 25
2 22
2 20
2 19
2 18
2 17
2 16
2 15
2 14
2 13
2 12
2 11
2 5
2 4
2 3
1 54
1 51
1 37
1 36
1 35
1 29
1 18
1 17
1 16
1 15
1 14
1 13
1 12
1 11
1 4
1 3
1 2
0 37
0 35
0 30
0 29
0 26
0 25
0 20
0 19
0 18
0 17
0 16
0 15
0 14
0 13
0 4
0 2
0 1
